(set-info :smt-lib-version 2.6)
(set-logic UF)
(set-info :source |Benchmarks from the paper: "Extending Sledgehammer with SMT Solvers" by Jasmin Blanchette, Sascha Bohme, and Lawrence C. Paulson, CADE 2011.  Translated to SMT2 by Andrew Reynolds and Morgan Deters.|)
(set-info :category "industrial")
(set-info :status unknown)
(declare-sort S1 0)
(declare-sort S2 0)
(declare-sort S3 0)
(declare-sort S4 0)
(declare-sort S5 0)
(declare-sort S6 0)
(declare-sort S7 0)
(declare-sort S8 0)
(declare-sort S9 0)
(declare-fun f1 () S1)
(declare-fun f2 () S1)
(declare-fun f3 (S2 S3) S3)
(declare-fun f4 (S4 S3) S2)
(declare-fun f5 () S4)
(declare-fun f6 (S5 S6) S3)
(declare-fun f7 () S5)
(declare-fun f8 (S7 S3) S6)
(declare-fun f9 (S8 S3) S7)
(declare-fun f10 () S8)
(declare-fun f11 () S3)
(declare-fun f12 () S3)
(declare-fun f13 () S3)
(declare-fun f14 () S3)
(declare-fun f15 () S4)
(declare-fun f16 () S4)
(declare-fun f17 (S3) S1)
(declare-fun f18 (S9 S6) S1)
(declare-fun f19 (S9 S3 S3) S1)
(declare-fun f20 (S3 S3) S1)
(declare-fun f21 () S3)
(declare-fun f22 (S3 S3) S1)
(declare-fun f23 () S2)
(assert (not (= f1 f2)))
(assert (let ((?v_0 (f4 f5 f11)) (?v_1 (f4 f5 f12))) (not (= (f3 (f4 f5 (f6 f7 (f8 (f9 f10 f11) f12))) (f6 f7 (f8 (f9 f10 f13) f14))) (f6 f7 (f8 (f9 f10 (f3 (f4 f15 (f3 ?v_0 f13)) (f3 ?v_1 f14))) (f3 (f4 f16 (f3 ?v_0 f14)) (f3 ?v_1 f13))))))))
(assert (forall ((?v0 S3) (?v1 S3) (?v2 S3) (?v3 S3) (?v4 S3) (?v5 S3) (?v6 S3)) (let ((?v_0 (f4 f5 ?v1))) (= (f3 (f4 f15 (f3 (f4 f5 (f3 (f4 f16 ?v0) (f3 ?v_0 ?v2))) ?v3)) (f3 (f4 f5 (f3 (f4 f16 ?v4) (f3 ?v_0 ?v5))) ?v6)) (f3 (f4 f16 (f3 (f4 f15 (f3 (f4 f5 ?v0) ?v3)) (f3 (f4 f5 ?v4) ?v6))) (f3 ?v_0 (f3 (f4 f15 (f3 (f4 f5 ?v2) ?v3)) (f3 (f4 f5 ?v5) ?v6))))))))
(assert (forall ((?v0 S3) (?v1 S3) (?v2 S3) (?v3 S3)) (let ((?v_0 (f4 f5 ?v0))) (= (f3 (f4 f16 (f3 ?v_0 ?v1)) (f3 (f4 f5 ?v2) ?v3)) (f3 (f4 f15 (f3 ?v_0 (f3 (f4 f16 ?v1) ?v3))) (f3 (f4 f5 (f3 (f4 f16 ?v0) ?v2)) ?v3))))))
(assert (forall ((?v0 S3) (?v1 S3) (?v2 S3) (?v3 S3) (?v4 S3)) (= (= (f3 (f4 f15 (f3 (f4 f5 ?v0) ?v1)) ?v2) (f3 (f4 f15 (f3 (f4 f5 ?v3) ?v1)) ?v4)) (= ?v2 (f3 (f4 f15 (f3 (f4 f5 (f3 (f4 f16 ?v3) ?v0)) ?v1)) ?v4)))))
(assert (forall ((?v0 S3) (?v1 S3) (?v2 S3) (?v3 S3) (?v4 S3)) (= (= (f3 (f4 f15 (f3 (f4 f5 ?v0) ?v1)) ?v2) (f3 (f4 f15 (f3 (f4 f5 ?v3) ?v1)) ?v4)) (= (f3 (f4 f15 (f3 (f4 f5 (f3 (f4 f16 ?v0) ?v3)) ?v1)) ?v2) ?v4))))
(assert (forall ((?v0 S3)) (= (= (f17 ?v0) f1) (exists ((?v1 S3) (?v2 S3)) (= (f6 f7 (f8 (f9 f10 ?v1) ?v2)) ?v0)))))
(assert (forall ((?v0 S3) (?v1 S3) (?v2 S3)) (=> (= (f3 (f4 f16 ?v0) ?v1) ?v2) (= ?v0 (f3 (f4 f15 ?v2) ?v1)))))
(assert (forall ((?v0 S3) (?v1 S3) (?v2 S3)) (let ((?v_0 (f4 f5 ?v0))) (= (f3 ?v_0 (f3 (f4 f16 ?v1) ?v2)) (f3 (f4 f16 (f3 ?v_0 ?v1)) (f3 ?v_0 ?v2))))))
(assert (forall ((?v0 S3) (?v1 S3) (?v2 S3)) (= (f3 (f4 f5 (f3 (f4 f16 ?v0) ?v1)) ?v2) (f3 (f4 f16 (f3 (f4 f5 ?v0) ?v2)) (f3 (f4 f5 ?v1) ?v2)))))
(assert (forall ((?v0 S3) (?v1 S3) (?v2 S3)) (let ((?v_0 (f4 f5 ?v0))) (= (f3 ?v_0 (f3 (f4 f15 ?v1) ?v2)) (f3 (f4 f15 (f3 ?v_0 ?v1)) (f3 ?v_0 ?v2))))))
(assert (forall ((?v0 S3) (?v1 S3) (?v2 S3)) (= (f3 (f4 f5 (f3 (f4 f15 ?v0) ?v1)) ?v2) (f3 (f4 f15 (f3 (f4 f5 ?v0) ?v2)) (f3 (f4 f5 ?v1) ?v2)))))
(assert (forall ((?v0 S3) (?v1 S3)) (= (f3 (f4 f15 (f3 (f4 f16 ?v0) ?v1)) ?v1) ?v0)))
(assert (forall ((?v0 S3) (?v1 S3) (?v2 S3)) (let ((?v_0 (f4 f5 ?v0))) (= (f3 (f4 f5 (f3 ?v_0 ?v1)) ?v2) (f3 ?v_0 (f3 (f4 f5 ?v1) ?v2))))))
(assert (forall ((?v0 S3) (?v1 S3) (?v2 S3)) (=> (= (f3 (f4 f15 ?v0) ?v1) (f3 (f4 f15 ?v2) ?v1)) (= ?v0 ?v2))))
(assert (forall ((?v0 S3) (?v1 S3) (?v2 S3)) (let ((?v_0 (f4 f15 ?v0))) (=> (= (f3 ?v_0 ?v1) (f3 ?v_0 ?v2)) (= ?v1 ?v2)))))
(assert (forall ((?v0 S3) (?v1 S3) (?v2 S3)) (let ((?v_0 (f4 f15 ?v0))) (=> (= (f3 ?v_0 ?v1) (f3 ?v_0 ?v2)) (= ?v1 ?v2)))))
(assert (forall ((?v0 S3) (?v1 S3) (?v2 S3)) (= (= (f3 (f4 f15 ?v0) ?v1) (f3 (f4 f15 ?v2) ?v1)) (= ?v0 ?v2))))
(assert (forall ((?v0 S3) (?v1 S3) (?v2 S3)) (let ((?v_0 (f4 f15 ?v0))) (= (= (f3 ?v_0 ?v1) (f3 ?v_0 ?v2)) (= ?v1 ?v2)))))
(assert (forall ((?v0 S3) (?v1 S3) (?v2 S3)) (let ((?v_0 (f4 f15 ?v0))) (= (f3 (f4 f15 (f3 ?v_0 ?v1)) ?v2) (f3 ?v_0 (f3 (f4 f15 ?v1) ?v2))))))
(assert (forall ((?v0 S3) (?v1 S3) (?v2 S3) (?v3 S3)) (=> (= (f3 (f4 f16 ?v0) ?v1) (f3 (f4 f16 ?v2) ?v3)) (= (= ?v0 ?v1) (= ?v2 ?v3)))))
(assert (forall ((?v0 S3) (?v1 S3) (?v2 S3)) (let ((?v_0 (f4 f5 ?v0))) (= (f3 (f4 f5 (f3 ?v_0 ?v1)) ?v2) (f3 ?v_0 (f3 (f4 f5 ?v1) ?v2))))))
(assert (forall ((?v0 S3) (?v1 S3)) (= (f3 (f4 f5 ?v0) ?v1) (f3 (f4 f5 ?v1) ?v0))))
(assert (forall ((?v0 S3) (?v1 S3) (?v2 S3)) (let ((?v_0 (f4 f15 ?v0))) (= (f3 (f4 f15 (f3 ?v_0 ?v1)) ?v2) (f3 ?v_0 (f3 (f4 f15 ?v1) ?v2))))))
(assert (forall ((?v0 S3) (?v1 S3) (?v2 S3)) (let ((?v_1 (f4 f15 ?v0)) (?v_0 (f4 f15 ?v1))) (= (f3 ?v_1 (f3 ?v_0 ?v2)) (f3 ?v_0 (f3 ?v_1 ?v2))))))
(assert (forall ((?v0 S3) (?v1 S3)) (= (f3 (f4 f15 ?v0) ?v1) (f3 (f4 f15 ?v1) ?v0))))
(assert (forall ((?v0 S3) (?v1 S3) (?v2 S3) (?v3 S3)) (= (f3 (f4 f15 (f3 (f4 f5 ?v0) ?v1)) (f3 (f4 f15 (f3 (f4 f5 ?v2) ?v1)) ?v3)) (f3 (f4 f15 (f3 (f4 f5 (f3 (f4 f15 ?v0) ?v2)) ?v1)) ?v3))))
(assert (forall ((?v0 S3) (?v1 S3) (?v2 S3)) (= (f3 (f4 f5 (f3 (f4 f15 ?v0) ?v1)) ?v2) (f3 (f4 f15 (f3 (f4 f5 ?v0) ?v2)) (f3 (f4 f5 ?v1) ?v2)))))
(assert (forall ((?v0 S3) (?v1 S3)) (= (f3 (f4 f16 (f3 (f4 f15 ?v0) ?v1)) ?v1) ?v0)))
(assert (forall ((?v0 S3) (?v1 S3) (?v2 S3) (?v3 S3)) (= (f3 (f4 f16 (f3 (f4 f15 ?v0) ?v1)) (f3 (f4 f15 ?v2) ?v3)) (f3 (f4 f15 (f3 (f4 f16 ?v0) ?v2)) (f3 (f4 f16 ?v1) ?v3)))))
(assert (forall ((?v0 S3) (?v1 S3) (?v2 S3) (?v3 S3)) (let ((?v_0 (f4 f5 ?v0)) (?v_1 (f4 f5 ?v2))) (= (= (f3 (f4 f15 (f3 ?v_0 ?v1)) (f3 ?v_1 ?v3)) (f3 (f4 f15 (f3 ?v_0 ?v3)) (f3 ?v_1 ?v1))) (or (= ?v0 ?v2) (= ?v1 ?v3))))))
(assert (forall ((?v0 S3) (?v1 S3) (?v2 S3)) (= (f3 (f4 f15 (f3 (f4 f5 ?v0) ?v1)) (f3 (f4 f5 ?v2) ?v1)) (f3 (f4 f5 (f3 (f4 f15 ?v0) ?v2)) ?v1))))
(assert (forall ((?v0 S3) (?v1 S3) (?v2 S3)) (= (f3 (f4 f5 (f3 (f4 f15 ?v0) ?v1)) ?v2) (f3 (f4 f15 (f3 (f4 f5 ?v0) ?v2)) (f3 (f4 f5 ?v1) ?v2)))))
(assert (forall ((?v0 S3) (?v1 S3) (?v2 S3) (?v3 S3)) (let ((?v_0 (f4 f5 ?v0)) (?v_1 (f4 f5 ?v1))) (= (and (not (= ?v0 ?v1)) (not (= ?v2 ?v3))) (not (= (f3 (f4 f15 (f3 ?v_0 ?v2)) (f3 ?v_1 ?v3)) (f3 (f4 f15 (f3 ?v_0 ?v3)) (f3 ?v_1 ?v2))))))))
(assert (forall ((?v0 S3) (?v1 S3) (?v2 S3)) (let ((?v_0 (f4 f5 ?v0))) (= (f3 ?v_0 (f3 (f4 f15 ?v1) ?v2)) (f3 (f4 f15 (f3 ?v_0 ?v1)) (f3 ?v_0 ?v2))))))
(assert (forall ((?v0 S3) (?v1 S3) (?v2 S3) (?v3 S3)) (=> (= (f8 (f9 f10 ?v0) ?v1) (f8 (f9 f10 ?v2) ?v3)) (=> (=> (= ?v0 ?v2) (=> (= ?v1 ?v3) false)) false))))
(assert (forall ((?v0 S3) (?v1 S3) (?v2 S3) (?v3 S3)) (= (= (f8 (f9 f10 ?v0) ?v1) (f8 (f9 f10 ?v2) ?v3)) (and (= ?v0 ?v2) (= ?v1 ?v3)))))
(assert (forall ((?v0 S9)) (= (forall ((?v1 S6)) (= (f18 ?v0 ?v1) f1)) (forall ((?v1 S3) (?v2 S3)) (= (f18 ?v0 (f8 (f9 f10 ?v1) ?v2)) f1)))))
(assert (forall ((?v0 S3) (?v1 S3)) (= (f3 (f4 f5 ?v0) ?v1) (f3 (f4 f5 ?v1) ?v0))))
(assert (forall ((?v0 S3) (?v1 S3) (?v2 S3)) (let ((?v_1 (f4 f5 ?v0)) (?v_0 (f4 f5 ?v1))) (= (f3 ?v_1 (f3 ?v_0 ?v2)) (f3 ?v_0 (f3 ?v_1 ?v2))))))
(assert (forall ((?v0 S3) (?v1 S3) (?v2 S3)) (let ((?v_0 (f4 f5 ?v0))) (= (f3 ?v_0 (f3 (f4 f5 ?v1) ?v2)) (f3 (f4 f5 (f3 ?v_0 ?v1)) ?v2)))))
(assert (forall ((?v0 S3) (?v1 S3) (?v2 S3)) (let ((?v_0 (f4 f5 ?v0))) (= (f3 (f4 f5 (f3 ?v_0 ?v1)) ?v2) (f3 ?v_0 (f3 (f4 f5 ?v1) ?v2))))))
(assert (forall ((?v0 S3) (?v1 S3) (?v2 S3)) (let ((?v_0 (f4 f5 ?v0))) (= (f3 (f4 f5 (f3 ?v_0 ?v1)) ?v2) (f3 (f4 f5 (f3 ?v_0 ?v2)) ?v1)))))
(assert (forall ((?v0 S3) (?v1 S3) (?v2 S3) (?v3 S3)) (let ((?v_0 (f4 f5 ?v0)) (?v_1 (f3 (f4 f5 ?v2) ?v3))) (= (f3 (f4 f5 (f3 ?v_0 ?v1)) ?v_1) (f3 ?v_0 (f3 (f4 f5 ?v1) ?v_1))))))
(assert (forall ((?v0 S3) (?v1 S3) (?v2 S3) (?v3 S3)) (let ((?v_1 (f4 f5 (f3 (f4 f5 ?v0) ?v1))) (?v_0 (f4 f5 ?v2))) (= (f3 ?v_1 (f3 ?v_0 ?v3)) (f3 ?v_0 (f3 ?v_1 ?v3))))))
(assert (forall ((?v0 S3) (?v1 S3) (?v2 S3) (?v3 S3)) (let ((?v_0 (f4 f5 ?v0))) (= (f3 (f4 f5 (f3 ?v_0 ?v1)) (f3 (f4 f5 ?v2) ?v3)) (f3 (f4 f5 (f3 ?v_0 ?v2)) (f3 (f4 f5 ?v1) ?v3))))))
(assert (forall ((?v0 S3) (?v1 S3)) (= (f3 (f4 f15 ?v0) ?v1) (f3 (f4 f15 ?v1) ?v0))))
(assert (forall ((?v0 S3) (?v1 S3) (?v2 S3)) (let ((?v_1 (f4 f15 ?v0)) (?v_0 (f4 f15 ?v1))) (= (f3 ?v_1 (f3 ?v_0 ?v2)) (f3 ?v_0 (f3 ?v_1 ?v2))))))
(assert (forall ((?v0 S3) (?v1 S3) (?v2 S3)) (let ((?v_0 (f4 f15 ?v0))) (= (f3 ?v_0 (f3 (f4 f15 ?v1) ?v2)) (f3 (f4 f15 (f3 ?v_0 ?v1)) ?v2)))))
(assert (forall ((?v0 S3) (?v1 S3) (?v2 S3)) (let ((?v_0 (f4 f15 ?v0))) (= (f3 (f4 f15 (f3 ?v_0 ?v1)) ?v2) (f3 ?v_0 (f3 (f4 f15 ?v1) ?v2))))))
(assert (forall ((?v0 S3) (?v1 S3) (?v2 S3)) (let ((?v_0 (f4 f15 ?v0))) (= (f3 (f4 f15 (f3 ?v_0 ?v1)) ?v2) (f3 (f4 f15 (f3 ?v_0 ?v2)) ?v1)))))
(assert (forall ((?v0 S3) (?v1 S3) (?v2 S3) (?v3 S3)) (let ((?v_0 (f4 f15 ?v0))) (= (f3 (f4 f15 (f3 ?v_0 ?v1)) (f3 (f4 f15 ?v2) ?v3)) (f3 (f4 f15 (f3 ?v_0 ?v2)) (f3 (f4 f15 ?v1) ?v3))))))
(assert (forall ((?v0 S9)) (= (exists ((?v1 S6)) (= (f18 ?v0 ?v1) f1)) (exists ((?v1 S3) (?v2 S3)) (= (f18 ?v0 (f8 (f9 f10 ?v1) ?v2)) f1)))))
(assert (forall ((?v0 S6)) (=> (forall ((?v1 S3) (?v2 S3)) (=> (= ?v0 (f8 (f9 f10 ?v1) ?v2)) false)) false)))
(assert (forall ((?v0 S6)) (=> (forall ((?v1 S3) (?v2 S3)) (=> (= ?v0 (f8 (f9 f10 ?v1) ?v2)) false)) false)))
(assert (forall ((?v0 S9) (?v1 S3) (?v2 S3)) (=> (= (f18 ?v0 (f8 (f9 f10 ?v1) ?v2)) f1) (= (f19 ?v0 ?v1 ?v2) f1))))
(assert (forall ((?v0 S9) (?v1 S3) (?v2 S3)) (=> (= (f19 ?v0 ?v1 ?v2) f1) (= (f18 ?v0 (f8 (f9 f10 ?v1) ?v2)) f1))))
(assert (forall ((?v0 S9) (?v1 S3) (?v2 S3)) (=> (= (f19 ?v0 ?v1 ?v2) f1) (=> (=> (= (f18 ?v0 (f8 (f9 f10 ?v1) ?v2)) f1) false) false))))
(assert (forall ((?v0 S9) (?v1 S3) (?v2 S3)) (= (= (f19 ?v0 ?v1 ?v2) f1) (= (f18 ?v0 (f8 (f9 f10 ?v1) ?v2)) f1))))
(assert (forall ((?v0 S3) (?v1 S3) (?v2 S3) (?v3 S3) (?v4 S3)) (= (= (f20 (f3 (f4 f15 (f3 (f4 f5 ?v0) ?v1)) ?v2) (f3 (f4 f15 (f3 (f4 f5 ?v3) ?v1)) ?v4)) f1) (= (f20 ?v2 (f3 (f4 f15 (f3 (f4 f5 (f3 (f4 f16 ?v3) ?v0)) ?v1)) ?v4)) f1))))
(assert (forall ((?v0 S3) (?v1 S3) (?v2 S3) (?v3 S3) (?v4 S3)) (= (= (f20 (f3 (f4 f15 (f3 (f4 f5 ?v0) ?v1)) ?v2) (f3 (f4 f15 (f3 (f4 f5 ?v3) ?v1)) ?v4)) f1) (= (f20 (f3 (f4 f15 (f3 (f4 f5 (f3 (f4 f16 ?v0) ?v3)) ?v1)) ?v2) ?v4) f1))))
(assert (forall ((?v0 S3)) (= (f3 (f4 f16 (f3 (f4 f5 ?v0) ?v0)) f21) (f3 (f4 f5 (f3 (f4 f15 ?v0) f21)) (f3 (f4 f16 ?v0) f21)))))
(assert (forall ((?v0 S3) (?v1 S3) (?v2 S3) (?v3 S3) (?v4 S3)) (= (= (f22 (f3 (f4 f15 (f3 (f4 f5 ?v0) ?v1)) ?v2) (f3 (f4 f15 (f3 (f4 f5 ?v3) ?v1)) ?v4)) f1) (= (f22 ?v2 (f3 (f4 f15 (f3 (f4 f5 (f3 (f4 f16 ?v3) ?v0)) ?v1)) ?v4)) f1))))
(assert (forall ((?v0 S3) (?v1 S3) (?v2 S3) (?v3 S3) (?v4 S3)) (= (= (f22 (f3 (f4 f15 (f3 (f4 f5 ?v0) ?v1)) ?v2) (f3 (f4 f15 (f3 (f4 f5 ?v3) ?v1)) ?v4)) f1) (= (f22 (f3 (f4 f15 (f3 (f4 f5 (f3 (f4 f16 ?v0) ?v3)) ?v1)) ?v2) ?v4) f1))))
(assert (forall ((?v0 S3) (?v1 S3) (?v2 S3)) (= (f3 (f4 f15 (f3 f23 ?v0)) (f3 (f4 f16 (f3 f23 ?v1)) ?v2)) (f3 (f4 f16 (f3 f23 (f3 (f4 f15 ?v0) ?v1))) ?v2))))
(assert (forall ((?v0 S3) (?v1 S3)) (= (= (f20 ?v0 (f3 (f4 f16 ?v1) f21)) f1) (= (f22 ?v0 ?v1) f1))))
(assert (forall ((?v0 S3) (?v1 S3)) (=> (= (f22 f21 ?v0) f1) (=> (= (f22 f21 ?v1) f1) (= (f22 f21 (f3 (f4 f5 ?v0) ?v1)) f1)))))
(assert (forall ((?v0 S3)) (= (f22 ?v0 (f3 (f4 f15 ?v0) f21)) f1)))
(assert (forall ((?v0 S3) (?v1 S3) (?v2 S3) (?v3 S3)) (=> (= (f20 ?v0 ?v1) f1) (=> (= (f22 ?v2 ?v3) f1) (= (f22 (f3 (f4 f15 ?v0) ?v2) (f3 (f4 f15 ?v1) ?v3)) f1)))))
(assert (forall ((?v0 S3) (?v1 S3) (?v2 S3) (?v3 S3)) (=> (= (f22 ?v0 ?v1) f1) (=> (= (f20 ?v2 ?v3) f1) (= (f22 (f3 (f4 f15 ?v0) ?v2) (f3 (f4 f15 ?v1) ?v3)) f1)))))
(assert (forall ((?v0 S3) (?v1 S3) (?v2 S3) (?v3 S3)) (=> (= (f22 ?v0 ?v1) f1) (=> (= (f20 ?v2 ?v3) f1) (= (f22 (f3 (f4 f15 ?v0) ?v2) (f3 (f4 f15 ?v1) ?v3)) f1)))))
(assert (forall ((?v0 S3) (?v1 S3)) (= (= (f22 ?v0 (f3 (f4 f15 ?v1) f21)) f1) (or (= (f22 ?v0 ?v1) f1) (= ?v0 ?v1)))))
(assert (forall ((?v0 S3) (?v1 S3)) (=> (= (f20 ?v0 ?v1) f1) (=> (not (= ?v0 ?v1)) (= (f22 ?v0 ?v1) f1)))))
(assert (forall ((?v0 S3) (?v1 S3)) (=> (= (f22 ?v0 ?v1) f1) (= (f20 (f3 (f4 f15 ?v0) f21) ?v1) f1))))
(assert (forall ((?v0 S3) (?v1 S3)) (=> (not (= ?v0 ?v1)) (=> (=> (= (f22 ?v0 ?v1) f1) false) (=> (=> (= (f22 ?v1 ?v0) f1) false) false)))))
(assert (forall ((?v0 S3) (?v1 S3)) (= (= (f20 (f3 (f4 f15 ?v0) f21) ?v1) f1) (= (f22 ?v0 ?v1) f1))))
(assert (forall ((?v0 S3) (?v1 S3)) (= (= (f20 (f3 f23 ?v0) (f3 f23 ?v1)) f1) (= (f20 ?v0 ?v1) f1))))
(assert (forall ((?v0 S3) (?v1 S3)) (= (= (f22 (f3 f23 ?v0) (f3 f23 ?v1)) f1) (= (f22 ?v0 ?v1) f1))))
(assert (forall ((?v0 S3) (?v1 S3)) (= (= (f3 f23 ?v0) (f3 f23 ?v1)) (= ?v0 ?v1))))
(assert (forall ((?v0 S3) (?v1 S3)) (let ((?v_1 (f3 f23 ?v0)) (?v_0 (f3 f23 ?v1))) (= (= (f20 ?v_1 ?v_0) f1) (not (= (f22 ?v_0 ?v_1) f1))))))
(assert (forall ((?v0 S3) (?v1 S3)) (let ((?v_0 (f3 f23 ?v0))) (= (= ?v_0 ?v1) (= ?v1 ?v_0)))))
(assert (forall ((?v0 S3) (?v1 S3)) (= (= (f22 ?v0 (f3 (f4 f15 ?v1) f21)) f1) (= (f20 ?v0 ?v1) f1))))
(assert (forall ((?v0 S3)) (= (= f21 ?v0) (= ?v0 f21))))
(assert (forall ((?v0 S3) (?v1 S3) (?v2 S3)) (let ((?v_0 (f4 f15 ?v0))) (=> (= (f22 (f3 ?v_0 ?v1) (f3 ?v_0 ?v2)) f1) (= (f22 ?v1 ?v2) f1)))))
(assert (forall ((?v0 S3) (?v1 S3) (?v2 S3)) (=> (= (f22 (f3 (f4 f15 ?v0) ?v1) (f3 (f4 f15 ?v2) ?v1)) f1) (= (f22 ?v0 ?v2) f1))))
(assert (forall ((?v0 S3) (?v1 S3) (?v2 S3) (?v3 S3)) (=> (= (f22 ?v0 ?v1) f1) (=> (= (f22 ?v2 ?v3) f1) (= (f22 (f3 (f4 f15 ?v0) ?v2) (f3 (f4 f15 ?v1) ?v3)) f1)))))
(assert (forall ((?v0 S3) (?v1 S3) (?v2 S3)) (let ((?v_0 (f4 f15 ?v2))) (=> (= (f22 ?v0 ?v1) f1) (= (f22 (f3 ?v_0 ?v0) (f3 ?v_0 ?v1)) f1)))))
(assert (forall ((?v0 S3) (?v1 S3) (?v2 S3)) (=> (= (f22 ?v0 ?v1) f1) (= (f22 (f3 (f4 f15 ?v0) ?v2) (f3 (f4 f15 ?v1) ?v2)) f1))))
(assert (forall ((?v0 S3) (?v1 S3) (?v2 S3)) (let ((?v_0 (f4 f15 ?v0))) (= (= (f22 (f3 ?v_0 ?v1) (f3 ?v_0 ?v2)) f1) (= (f22 ?v1 ?v2) f1)))))
(assert (forall ((?v0 S3) (?v1 S3) (?v2 S3)) (= (= (f22 (f3 (f4 f15 ?v0) ?v1) (f3 (f4 f15 ?v2) ?v1)) f1) (= (f22 ?v0 ?v2) f1))))
(assert (forall ((?v0 S3)) (= (f3 (f4 f5 ?v0) f21) ?v0)))
(assert (forall ((?v0 S3)) (= (f3 (f4 f5 ?v0) f21) ?v0)))
(assert (forall ((?v0 S3)) (= (f3 (f4 f5 f21) ?v0) ?v0)))
(assert (forall ((?v0 S3)) (= (f3 (f4 f5 f21) ?v0) ?v0)))
(assert (forall ((?v0 S3)) (= (f3 (f4 f5 ?v0) f21) ?v0)))
(assert (forall ((?v0 S3)) (= (f3 (f4 f5 f21) ?v0) ?v0)))
(assert (forall ((?v0 S3) (?v1 S3) (?v2 S3) (?v3 S3)) (=> (= (f3 (f4 f16 ?v0) ?v1) (f3 (f4 f16 ?v2) ?v3)) (= (= (f22 ?v0 ?v1) f1) (= (f22 ?v2 ?v3) f1)))))
(assert (forall ((?v0 S3) (?v1 S3) (?v2 S3)) (let ((?v_0 (f4 f15 ?v0))) (=> (= (f20 (f3 ?v_0 ?v1) (f3 ?v_0 ?v2)) f1) (= (f20 ?v1 ?v2) f1)))))
(assert (forall ((?v0 S3) (?v1 S3) (?v2 S3)) (=> (= (f20 (f3 (f4 f15 ?v0) ?v1) (f3 (f4 f15 ?v2) ?v1)) f1) (= (f20 ?v0 ?v2) f1))))
(assert (forall ((?v0 S3) (?v1 S3) (?v2 S3) (?v3 S3)) (=> (= (f20 ?v0 ?v1) f1) (=> (= (f20 ?v2 ?v3) f1) (= (f20 (f3 (f4 f15 ?v0) ?v2) (f3 (f4 f15 ?v1) ?v3)) f1)))))
(assert (forall ((?v0 S3) (?v1 S3) (?v2 S3)) (let ((?v_0 (f4 f15 ?v2))) (=> (= (f20 ?v0 ?v1) f1) (= (f20 (f3 ?v_0 ?v0) (f3 ?v_0 ?v1)) f1)))))
(assert (forall ((?v0 S3) (?v1 S3) (?v2 S3)) (=> (= (f20 ?v0 ?v1) f1) (= (f20 (f3 (f4 f15 ?v0) ?v2) (f3 (f4 f15 ?v1) ?v2)) f1))))
(check-sat)
(exit)
